1591367
0,18,48,22,59,5,10,65,25,54,33,45,42,6,37,66,63,40,29,24,28,4,39,55,31,11,41,2,20,60,23,62,15,58,35,49,27,30,21,13,51,32,56,17,9,43,52,36,61,38,50,34,67,7,14,57,8,16,26,44,1,47,64,19,3,46,12,53,0